&BANDS
prefix = 'VLAB',
outdir = './tmp',
filband = 'graphene.bands.dat',
lsym = .true.
&end
