&CONTROL
calculation = 'scf'
forc_conv_thr = 0.00038
outdir = './tmp'
prefix = 'VLAB'
pseudo_dir = '../PSEUDO'
restart_mode = 'from_scratch'
verbosity = 'high'
wf_collect = .TRUE.

/

&SYSTEM
degauss = 0.002
ecutrho = 180
ecutwfc = 90
ibrav = 0
nat = 2
ntyp = 1
occupations = 'smearing'
/

&ELECTRONS
conv_thr = 1e-06
electron_maxstep = 200
mixing_beta = 0.5
mixing_mode = 'plain'
scf_must_converge = .TRUE.
startingwfc = 'random'
/

ATOMIC_SPECIES
C 12.011 C.upf

K_POINTS {automatic}
    10 10 10 0 0 0

CELL_PARAMETERS {angstrom}
2.4610000000 0.0000000000 0.0000000000
-1.2305000000 2.1328666667 0.0000000000
0.0000000000 0.0000000000 20.0000000000

ATOMIC_POSITIONS {angstrom}
C 1.2305 0.7104295062378345 10
C 0 1.420859012475669 10